GLKH-1.1/TMP/mtspf.pid6043.atsp
NAME : mtspf.pid6043.gtsp
TYPE : ATSP
DIMENSION : 45
EDGE_WEIGHT_TYPE : EXPLICIT
EDGE_WEIGHT_FORMAT : FULL_MATRIX
EDGE_WEIGHT_SECTION
999999 5368709 5368709 5368709 5368709 5368715 5368714 5368713 5368714 5368766 5368765 5368764 5368765 5368744 5368745 5368746 5368745 5368740 5368741 5368742 5368741 5368740 5368739 5368738 5368739 5368716 5368715 5368714 5368715 5368729 5368728 5368727 5368728 5368727 5368726 5368725 5368726 5368751 5368750 5368749 5368750 5368718 5368719 5368720 5368719 
5368709 999999 5368709 5368709 5368709 5368739 5368740 5368739 5368738 5368738 5368737 5368738 5368739 5368720 5368721 5368722 5368721 5368716 5368717 5368718 5368717 5368750 5368751 5368750 5368749 5368738 5368739 5368738 5368737 5368745 5368746 5368745 5368744 5368739 5368740 5368739 5368738 5368735 5368736 5368735 5368734 5368742 5368743 5368744 5368743 
5368709 5368709 999999 5368709 5368709 5368737 5368738 5368739 5368738 5368736 5368735 5368736 5368737 5368726 5368727 5368728 5368727 5368722 5368723 5368724 5368723 5368744 5368745 5368744 5368743 5368736 5368737 5368738 5368737 5368739 5368740 5368739 5368738 5368733 5368734 5368733 5368732 5368729 5368730 5368729 5368728 5368744 5368745 5368746 5368745 
5368709 5368709 5368709 999999 5368709 5368738 5368739 5368738 5368737 5368739 5368738 5368739 5368740 5368721 5368722 5368723 5368722 5368717 5368718 5368719 5368718 5368749 5368750 5368749 5368748 5368737 5368738 5368737 5368736 5368744 5368745 5368744 5368743 5368738 5368739 5368738 5368737 5368734 5368735 5368734 5368733 5368741 5368742 5368743 5368742 
5368709 5368709 5368709 5368709 999999 5368721 5368722 5368721 5368720 5368752 5368751 5368752 5368753 5368738 5368737 5368738 5368739 5368734 5368733 5368734 5368735 5368734 5368733 5368732 5368733 5368720 5368721 5368720 5368719 5368729 5368728 5368727 5368728 5368723 5368722 5368721 5368722 5368737 5368736 5368737 5368738 5368728 5368729 5368730 5368729 
5368709 5368709 5368709 5368709 5368709 999999 0 10737418 10737418 5368763 5368762 5368761 5368762 5368747 5368748 5368749 5368748 5368743 5368744 5368745 5368744 5368737 5368736 5368735 5368736 5368711 5368710 5368711 5368712 5368726 5368725 5368724 5368725 5368724 5368723 5368722 5368723 5368748 5368747 5368746 5368747 5368721 5368722 5368723 5368722 
5368709 5368709 5368709 5368709 5368709 10737418 999999 0 10737418 5368762 5368761 5368762 5368763 5368748 5368749 5368750 5368749 5368744 5368745 5368746 5368745 5368736 5368735 5368736 5368737 5368712 5368711 5368712 5368713 5368725 5368724 5368725 5368726 5368723 5368722 5368723 5368724 5368747 5368746 5368747 5368748 5368722 5368723 5368724 5368723 
5368709 5368709 5368709 5368709 5368709 10737418 10737418 999999 0 5368763 5368762 5368763 5368764 5368749 5368748 5368749 5368750 5368745 5368744 5368745 5368746 5368737 5368736 5368737 5368738 5368713 5368712 5368713 5368714 5368726 5368725 5368726 5368727 5368724 5368723 5368724 5368725 5368748 5368747 5368748 5368749 5368723 5368722 5368723 5368724 
5368709 5368709 5368709 5368709 5368709 0 10737418 10737418 999999 5368764 5368763 5368762 5368763 5368748 5368747 5368748 5368749 5368744 5368743 5368744 5368745 5368738 5368737 5368736 5368737 5368712 5368711 5368712 5368713 5368727 5368726 5368725 5368726 5368725 5368724 5368723 5368724 5368749 5368748 5368747 5368748 5368722 5368721 5368722 5368723 
5368709 5368709 5368709 5368709 5368709 5368763 5368764 5368763 5368762 999999 0 10737418 10737418 5368740 5368741 5368740 5368739 5368744 5368745 5368744 5368743 5368738 5368739 5368738 5368737 5368762 5368763 5368762 5368761 5368749 5368750 5368749 5368748 5368751 5368752 5368751 5368750 5368727 5368728 5368727 5368726 5368770 5368771 5368770 5368769 
5368709 5368709 5368709 5368709 5368709 5368762 5368763 5368764 5368763 10737418 999999 0 10737418 5368739 5368740 5368741 5368740 5368743 5368744 5368745 5368744 5368737 5368738 5368739 5368738 5368761 5368762 5368763 5368762 5368748 5368749 5368750 5368749 5368750 5368751 5368752 5368751 5368726 5368727 5368728 5368727 5368769 5368770 5368771 5368770 
5368709 5368709 5368709 5368709 5368709 5368761 5368762 5368763 5368762 10737418 10737418 999999 0 5368738 5368739 5368740 5368739 5368742 5368743 5368744 5368743 5368736 5368737 5368738 5368737 5368760 5368761 5368762 5368761 5368747 5368748 5368749 5368748 5368749 5368750 5368751 5368750 5368725 5368726 5368727 5368726 5368768 5368769 5368770 5368769 
5368709 5368709 5368709 5368709 5368709 5368762 5368763 5368762 5368761 0 10737418 10737418 999999 5368739 5368740 5368739 5368738 5368743 5368744 5368743 5368742 5368737 5368738 5368737 5368736 5368761 5368762 5368761 5368760 5368748 5368749 5368748 5368747 5368750 5368751 5368750 5368749 5368726 5368727 5368726 5368725 5368769 5368770 5368769 5368768 
5368709 5368709 5368709 5368709 5368709 5368749 5368750 5368749 5368748 5368740 5368739 5368738 5368739 999999 0 10737418 10737418 5368716 5368717 5368716 5368715 5368760 5368761 5368760 5368759 5368748 5368749 5368748 5368747 5368755 5368756 5368755 5368754 5368749 5368750 5368749 5368748 5368745 5368746 5368745 5368744 5368742 5368743 5368742 5368741 
5368709 5368709 5368709 5368709 5368709 5368748 5368749 5368748 5368747 5368739 5368738 5368739 5368740 10737418 999999 0 10737418 5368715 5368716 5368715 5368714 5368759 5368760 5368759 5368758 5368747 5368748 5368747 5368746 5368754 5368755 5368754 5368753 5368748 5368749 5368748 5368747 5368744 5368745 5368744 5368743 5368741 5368742 5368743 5368742 
5368709 5368709 5368709 5368709 5368709 5368749 5368748 5368747 5368748 5368740 5368739 5368740 5368741 10737418 10737418 999999 0 5368714 5368715 5368714 5368713 5368760 5368759 5368758 5368759 5368748 5368747 5368746 5368747 5368755 5368754 5368753 5368754 5368749 5368748 5368747 5368748 5368745 5368744 5368743 5368744 5368740 5368741 5368742 5368741 
5368709 5368709 5368709 5368709 5368709 5368750 5368749 5368748 5368749 5368741 5368740 5368739 5368740 0 10737418 10737418 999999 5368715 5368716 5368715 5368714 5368761 5368760 5368759 5368760 5368749 5368748 5368747 5368748 5368756 5368755 5368754 5368755 5368750 5368749 5368748 5368749 5368746 5368745 5368744 5368745 5368741 5368742 5368741 5368740 
5368709 5368709 5368709 5368709 5368709 5368745 5368746 5368745 5368744 5368744 5368743 5368742 5368743 5368714 5368713 5368714 5368715 999999 0 10737418 10737418 5368756 5368757 5368756 5368755 5368744 5368745 5368744 5368743 5368751 5368752 5368751 5368750 5368745 5368746 5368745 5368744 5368741 5368742 5368741 5368740 5368738 5368739 5368738 5368737 
5368709 5368709 5368709 5368709 5368709 5368744 5368745 5368744 5368743 5368743 5368742 5368743 5368744 5368715 5368714 5368715 5368716 10737418 999999 0 10737418 5368755 5368756 5368755 5368754 5368743 5368744 5368743 5368742 5368750 5368751 5368750 5368749 5368744 5368745 5368744 5368743 5368740 5368741 5368740 5368739 5368737 5368738 5368739 5368738 
5368709 5368709 5368709 5368709 5368709 5368745 5368744 5368743 5368744 5368744 5368743 5368744 5368745 5368716 5368715 5368716 5368717 10737418 10737418 999999 0 5368756 5368755 5368754 5368755 5368744 5368743 5368742 5368743 5368751 5368750 5368749 5368750 5368745 5368744 5368743 5368744 5368741 5368740 5368739 5368740 5368736 5368737 5368738 5368737 
5368709 5368709 5368709 5368709 5368709 5368746 5368745 5368744 5368745 5368745 5368744 5368743 5368744 5368715 5368714 5368715 5368716 0 10737418 10737418 999999 5368757 5368756 5368755 5368756 5368745 5368744 5368743 5368744 5368752 5368751 5368750 5368751 5368746 5368745 5368744 5368745 5368742 5368741 5368740 5368741 5368737 5368738 5368737 5368736 
5368709 5368709 5368709 5368709 5368709 5368737 5368738 5368737 5368736 5368738 5368737 5368736 5368737 5368758 5368759 5368760 5368759 5368754 5368755 5368756 5368755 999999 0 10737418 10737418 5368736 5368737 5368736 5368735 5368723 5368724 5368723 5368722 5368725 5368726 5368725 5368724 5368725 5368726 5368727 5368726 5368744 5368745 5368744 5368743 
5368709 5368709 5368709 5368709 5368709 5368736 5368737 5368738 5368737 5368737 5368736 5368737 5368738 5368759 5368760 5368761 5368760 5368755 5368756 5368757 5368756 10737418 999999 0 10737418 5368735 5368736 5368737 5368736 5368722 5368723 5368724 5368723 5368724 5368725 5368726 5368725 5368726 5368727 5368728 5368727 5368743 5368744 5368745 5368744 
5368709 5368709 5368709 5368709 5368709 5368735 5368736 5368737 5368736 5368738 5368737 5368738 5368739 5368760 5368759 5368760 5368761 5368756 5368755 5368756 5368757 10737418 10737418 999999 0 5368734 5368735 5368736 5368735 5368721 5368722 5368723 5368722 5368723 5368724 5368725 5368724 5368727 5368726 5368727 5368728 5368742 5368743 5368744 5368743 
5368709 5368709 5368709 5368709 5368709 5368736 5368737 5368736 5368735 5368739 5368738 5368737 5368738 5368759 5368758 5368759 5368760 5368755 5368754 5368755 5368756 0 10737418 10737418 999999 5368735 5368736 5368735 5368734 5368722 5368723 5368722 5368721 5368724 5368725 5368724 5368723 5368726 5368725 5368726 5368727 5368743 5368744 5368743 5368742 
5368709 5368709 5368709 5368709 5368709 5368713 5368714 5368713 5368712 5368762 5368761 5368760 5368761 5368746 5368747 5368748 5368747 5368742 5368743 5368744 5368743 5368736 5368735 5368734 5368735 999999 0 10737418 10737418 5368725 5368724 5368723 5368724 5368723 5368722 5368721 5368722 5368747 5368746 5368745 5368746 5368720 5368721 5368722 5368721 
5368709 5368709 5368709 5368709 5368709 5368712 5368713 5368712 5368711 5368761 5368760 5368761 5368762 5368747 5368748 5368749 5368748 5368743 5368744 5368745 5368744 5368735 5368734 5368735 5368736 10737418 999999 0 10737418 5368724 5368723 5368724 5368725 5368722 5368721 5368722 5368723 5368746 5368745 5368746 5368747 5368721 5368722 5368723 5368722 
5368709 5368709 5368709 5368709 5368709 5368711 5368712 5368711 5368710 5368762 5368761 5368762 5368763 5368748 5368747 5368748 5368749 5368744 5368743 5368744 5368745 5368736 5368735 5368736 5368737 10737418 10737418 999999 0 5368725 5368724 5368725 5368726 5368723 5368722 5368723 5368724 5368747 5368746 5368747 5368748 5368722 5368721 5368722 5368723 
5368709 5368709 5368709 5368709 5368709 5368712 5368713 5368712 5368711 5368763 5368762 5368761 5368762 5368747 5368746 5368747 5368748 5368743 5368742 5368743 5368744 5368737 5368736 5368735 5368736 0 10737418 10737418 999999 5368726 5368725 5368724 5368725 5368724 5368723 5368722 5368723 5368748 5368747 5368746 5368747 5368721 5368720 5368721 5368722 
5368709 5368709 5368709 5368709 5368709 5368726 5368727 5368726 5368725 5368749 5368748 5368747 5368748 5368753 5368754 5368755 5368754 5368749 5368750 5368751 5368750 5368723 5368722 5368721 5368722 5368725 5368726 5368725 5368724 999999 0 10737418 10737418 5368716 5368717 5368718 5368717 5368734 5368733 5368732 5368733 5368733 5368734 5368733 5368732 
5368709 5368709 5368709 5368709 5368709 5368725 5368726 5368727 5368726 5368748 5368747 5368748 5368749 5368754 5368755 5368756 5368755 5368750 5368751 5368752 5368751 5368722 5368721 5368722 5368723 5368724 5368725 5368726 5368725 10737418 999999 0 10737418 5368717 5368718 5368719 5368718 5368733 5368732 5368733 5368734 5368732 5368733 5368734 5368733 
5368709 5368709 5368709 5368709 5368709 5368724 5368725 5368726 5368725 5368749 5368748 5368749 5368750 5368755 5368754 5368755 5368756 5368751 5368750 5368751 5368752 5368723 5368722 5368723 5368724 5368723 5368724 5368725 5368724 10737418 10737418 999999 0 5368718 5368717 5368718 5368719 5368734 5368733 5368734 5368735 5368731 5368732 5368733 5368732 
5368709 5368709 5368709 5368709 5368709 5368725 5368726 5368725 5368724 5368750 5368749 5368748 5368749 5368754 5368753 5368754 5368755 5368750 5368749 5368750 5368751 5368724 5368723 5368722 5368723 5368724 5368725 5368724 5368723 0 10737418 10737418 999999 5368717 5368716 5368717 5368718 5368735 5368734 5368733 5368734 5368732 5368733 5368732 5368731 
5368709 5368709 5368709 5368709 5368709 5368724 5368725 5368724 5368723 5368751 5368750 5368749 5368750 5368747 5368748 5368749 5368748 5368743 5368744 5368745 5368744 5368725 5368724 5368723 5368724 5368723 5368724 5368723 5368722 5368718 5368719 5368718 5368717 999999 0 10737418 10737418 5368736 5368735 5368734 5368735 5368731 5368732 5368731 5368730 
5368709 5368709 5368709 5368709 5368709 5368723 5368724 5368725 5368724 5368750 5368749 5368750 5368751 5368748 5368749 5368750 5368749 5368744 5368745 5368746 5368745 5368724 5368723 5368724 5368725 5368722 5368723 5368724 5368723 5368717 5368718 5368717 5368716 10737418 999999 0 10737418 5368735 5368734 5368735 5368736 5368730 5368731 5368732 5368731 
5368709 5368709 5368709 5368709 5368709 5368722 5368723 5368724 5368723 5368751 5368750 5368751 5368752 5368749 5368748 5368749 5368750 5368745 5368744 5368745 5368746 5368725 5368724 5368725 5368726 5368721 5368722 5368723 5368722 5368718 5368717 5368716 5368717 10737418 10737418 999999 0 5368736 5368735 5368736 5368737 5368729 5368730 5368731 5368730 
5368709 5368709 5368709 5368709 5368709 5368723 5368724 5368723 5368722 5368752 5368751 5368750 5368751 5368748 5368747 5368748 5368749 5368744 5368743 5368744 5368745 5368726 5368725 5368724 5368725 5368722 5368723 5368722 5368721 5368719 5368718 5368717 5368718 0 10737418 10737418 999999 5368737 5368736 5368735 5368736 5368730 5368731 5368730 5368729 
5368709 5368709 5368709 5368709 5368709 5368748 5368749 5368748 5368747 5368727 5368726 5368725 5368726 5368743 5368744 5368745 5368744 5368739 5368740 5368741 5368740 5368727 5368728 5368727 5368726 5368747 5368748 5368747 5368746 5368734 5368735 5368734 5368733 5368736 5368737 5368736 5368735 999999 0 10737418 10737418 5368755 5368756 5368755 5368754 
5368709 5368709 5368709 5368709 5368709 5368747 5368748 5368749 5368748 5368726 5368725 5368726 5368727 5368744 5368745 5368746 5368745 5368740 5368741 5368742 5368741 5368726 5368727 5368726 5368725 5368746 5368747 5368748 5368747 5368733 5368734 5368735 5368734 5368735 5368736 5368737 5368736 10737418 999999 0 10737418 5368754 5368755 5368756 5368755 
5368709 5368709 5368709 5368709 5368709 5368746 5368747 5368748 5368747 5368727 5368726 5368727 5368728 5368745 5368744 5368745 5368746 5368741 5368740 5368741 5368742 5368727 5368726 5368725 5368726 5368745 5368746 5368747 5368746 5368732 5368733 5368734 5368733 5368734 5368735 5368736 5368735 10737418 10737418 999999 0 5368753 5368754 5368755 5368754 
5368709 5368709 5368709 5368709 5368709 5368747 5368748 5368747 5368746 5368728 5368727 5368726 5368727 5368744 5368743 5368744 5368745 5368740 5368739 5368740 5368741 5368728 5368727 5368726 5368727 5368746 5368747 5368746 5368745 5368733 5368734 5368733 5368732 5368735 5368736 5368735 5368734 0 10737418 10737418 999999 5368754 5368755 5368754 5368753 
5368709 5368709 5368709 5368709 5368709 5368723 5368724 5368723 5368722 5368770 5368769 5368768 5368769 5368742 5368741 5368740 5368741 5368738 5368737 5368736 5368737 5368744 5368743 5368742 5368743 5368722 5368723 5368722 5368721 5368733 5368732 5368731 5368732 5368731 5368730 5368729 5368730 5368755 5368754 5368753 5368754 999999 0 10737418 10737418 
5368709 5368709 5368709 5368709 5368709 5368722 5368723 5368722 5368721 5368769 5368768 5368769 5368770 5368741 5368740 5368741 5368742 5368737 5368736 5368737 5368738 5368743 5368742 5368743 5368744 5368721 5368722 5368721 5368720 5368732 5368731 5368732 5368733 5368730 5368729 5368730 5368731 5368754 5368753 5368754 5368755 10737418 999999 0 10737418 
5368709 5368709 5368709 5368709 5368709 5368723 5368722 5368721 5368722 5368770 5368769 5368770 5368771 5368742 5368741 5368742 5368743 5368738 5368737 5368738 5368739 5368744 5368743 5368744 5368745 5368722 5368721 5368720 5368721 5368733 5368732 5368733 5368734 5368731 5368730 5368731 5368732 5368755 5368754 5368755 5368756 10737418 10737418 999999 0 
5368709 5368709 5368709 5368709 5368709 5368724 5368723 5368722 5368723 5368771 5368770 5368769 5368770 5368743 5368742 5368741 5368742 5368739 5368738 5368737 5368738 5368745 5368744 5368743 5368744 5368723 5368722 5368721 5368722 5368734 5368733 5368732 5368733 5368732 5368731 5368730 5368731 5368756 5368755 5368754 5368755 0 10737418 10737418 999999 
EOF
