GLKH-1.1/TMP/mtspf.pid6043.tour
NAME : mtspf.pid6043.gtsp.80530729.tour
COMMENT : Length = 80530729
COMMENT : Found by LKH [Keld Helsgaun] Tue Mar  4 13:42:59 2025
TYPE : TOUR
DIMENSION : 45
TOUR_SECTION
1
7
8
9
6
27
28
29
26
42
43
44
45
4
3
2
19
20
21
18
15
16
17
14
5
37
34
35
36
32
33
30
31
23
24
25
22
38
39
40
41
12
13
10
11
-1
EOF
